100
8 15 13 16 15 30 24 19 2 22 30 13 21 3 6 8 5 2 10 17 9 29 17 4 15 17 5 2 29 19 22 5 22 20 20 8 28 26 25 16 13 5 4 13 17 30 3 17 2 9 27 18 27 10 26 30 8 23 26 8 1 30 27 23 27 13 8 7 8 26 23 21 2 17 20 21 30 30 19 11 1 14 24 10 6 29 26 4 16 24 23 8 7 1 10 11 7 13 26 30